;; translated from ./ctigar/rajamani_1.c.vmt
;; original benchmark available at: https://es-static.fbk.eu/people/griggio/ic3ia/index.html
;; author: Alberto Griggio <griggio@fbk.eu>
(set-logic HORN)
(declare-fun state (Bool Bool Bool Bool Bool Int Int Int Int) Bool)
(assert (forall ((|.s.2| Bool) (|.s.3| Bool) (|.s.0| Bool) (|.s.1| Bool) (|.s.1.next| Bool) (|.s.0.next| Bool) (|.s.2.next| Bool) (|.s.3.next| Bool) (|.s.4.next| Bool) (|main.w.next| Int) (|main.w| Int) (|main.x.next| Int) (|main.x| Int) (|main.y.next| Int) (|main.y| Int) (|main.z.next| Int) (|main.z| Int) (|.inputVar.0| Int) (|.s.4| Bool)) (=> (let ((.def_20 (not .s.4)))
(let ((.def_17 (not .s.3)))
(let ((.def_14 (not .s.2)))
(let ((.def_10 (not .s.1)))
(let ((.def_12 (and .def_10 .s.0)))
(let ((.def_15 (and .def_12 .def_14)))
(let ((.def_18 (and .def_15 .def_17)))
(let ((.def_21 (and .def_18 .def_20)))
.def_21)))))))) (state |.s.1| |.s.0| |.s.2| |.s.3| |.s.4| |main.w| |main.x| |main.y| |main.z|))))
(assert (forall ((|.s.2| Bool) (|.s.3| Bool) (|.s.0| Bool) (|.s.1| Bool) (|.s.1.next| Bool) (|.s.0.next| Bool) (|.s.2.next| Bool) (|.s.3.next| Bool) (|.s.4.next| Bool) (|main.w.next| Int) (|main.w| Int) (|main.x.next| Int) (|main.x| Int) (|main.y.next| Int) (|main.y| Int) (|main.z.next| Int) (|main.z| Int) (|.inputVar.0| Int) (|.s.4| Bool)) (=> (and (state |.s.1| |.s.0| |.s.2| |.s.3| |.s.4| |main.w| |main.x| |main.y| |main.z|) (let ((.def_22 (not .s.0)))
(let ((.def_10 (not .s.1)))
(let ((.def_71 (and .def_10 .def_22)))
(let ((.def_14 (not .s.2)))
(let ((.def_72 (and .def_14 .def_71)))
(let ((.def_17 (not .s.3)))
(let ((.def_182 (and .def_17 .def_72)))
(let ((.def_20 (not .s.4)))
(let ((.def_392 (and .def_20 .def_182)))
(let ((.def_393 (not .def_392)))
(let ((.def_61 (not .s.1.next)))
(let ((.def_29 (not .s.0.next)))
(let ((.def_62 (and .def_29 .def_61)))
(let ((.def_33 (not .s.2.next)))
(let ((.def_63 (and .def_33 .def_62)))
(let ((.def_60 (not .s.3.next)))
(let ((.def_64 (and .def_60 .def_63)))
(let ((.def_59 (not .s.4.next)))
(let ((.def_65 (and .def_59 .def_64)))
(let ((.def_41 (= main.w main.w.next)))
(let ((.def_66 (and .def_41 .def_65)))
(let ((.def_45 (= main.x main.x.next)))
(let ((.def_67 (and .def_45 .def_66)))
(let ((.def_49 (= main.y main.y.next)))
(let ((.def_68 (and .def_49 .def_67)))
(let ((.def_53 (= main.z main.z.next)))
(let ((.def_69 (and .def_53 .def_68)))
(let ((.def_394 (or .def_69 .def_393)))
(let ((.def_386 (= main.z.next 0)))
(let ((.def_31 (and .def_29 .s.1.next)))
(let ((.def_34 (and .def_31 .def_33)))
(let ((.def_175 (and .def_34 .def_60)))
(let ((.def_301 (and .def_59 .def_175)))
(let ((.def_387 (and .def_301 .def_386)))
(let ((.def_385 (= main.x.next 0)))
(let ((.def_388 (and .def_385 .def_387)))
(let ((.def_384 (= main.y.next 0)))
(let ((.def_389 (and .def_384 .def_388)))
(let ((.def_383 (= main.w.next 0)))
(let ((.def_390 (and .def_383 .def_389)))
(let ((.def_12 (and .def_10 .s.0)))
(let ((.def_15 (and .def_12 .def_14)))
(let ((.def_18 (and .def_15 .def_17)))
(let ((.def_21 (and .def_18 .def_20)))
(let ((.def_382 (not .def_21)))
(let ((.def_391 (or .def_382 .def_390)))
(let ((.def_395 (and .def_391 .def_394)))
(let ((.def_105 (and .s.0.next .s.1.next)))
(let ((.def_162 (and .def_33 .def_105)))
(let ((.def_163 (and .def_60 .def_162)))
(let ((.def_376 (and .def_59 .def_163)))
(let ((.def_377 (and .def_41 .def_376)))
(let ((.def_378 (and .def_45 .def_377)))
(let ((.def_379 (and .def_49 .def_378)))
(let ((.def_380 (and .def_53 .def_379)))
(let ((.def_23 (and .s.1 .def_22)))
(let ((.def_24 (and .def_14 .def_23)))
(let ((.def_159 (and .def_17 .def_24)))
(let ((.def_365 (and .def_20 .def_159)))
(let ((.def_280 (= .inputVar.0 0)))
(let ((.def_374 (and .def_280 .def_365)))
(let ((.def_375 (not .def_374)))
(let ((.def_381 (or .def_375 .def_380)))
(let ((.def_396 (and .def_381 .def_395)))
(let ((.def_76 (and .s.0.next .def_61)))
(let ((.def_244 (and .s.2.next .def_76)))
(let ((.def_341 (and .def_60 .def_244)))
(let ((.def_368 (and .s.4.next .def_341)))
(let ((.def_369 (and .def_41 .def_368)))
(let ((.def_370 (and .def_45 .def_369)))
(let ((.def_371 (and .def_49 .def_370)))
(let ((.def_372 (and .def_53 .def_371)))
(let ((.def_281 (not .def_280)))
(let ((.def_366 (and .def_281 .def_365)))
(let ((.def_367 (not .def_366)))
(let ((.def_373 (or .def_367 .def_372)))
(let ((.def_397 (and .def_373 .def_396)))
(let ((.def_151 (and .s.2.next .def_62)))
(let ((.def_152 (and .def_60 .def_151)))
(let ((.def_359 (and .def_59 .def_152)))
(let ((.def_360 (and .def_41 .def_359)))
(let ((.def_361 (and .def_45 .def_360)))
(let ((.def_362 (and .def_49 .def_361)))
(let ((.def_363 (and .def_53 .def_362)))
(let ((.def_85 (and .s.1 .s.0)))
(let ((.def_147 (and .def_14 .def_85)))
(let ((.def_148 (and .def_17 .def_147)))
(let ((.def_348 (and .def_20 .def_148)))
(let ((.def_357 (and .def_280 .def_348)))
(let ((.def_358 (not .def_357)))
(let ((.def_364 (or .def_358 .def_363)))
(let ((.def_398 (and .def_364 .def_397)))
(let ((.def_77 (and .def_33 .def_76)))
(let ((.def_78 (and .s.3.next .def_77)))
(let ((.def_351 (and .def_59 .def_78)))
(let ((.def_352 (and .def_41 .def_351)))
(let ((.def_353 (and .def_45 .def_352)))
(let ((.def_354 (and .def_49 .def_353)))
(let ((.def_355 (and .def_53 .def_354)))
(let ((.def_349 (and .def_281 .def_348)))
(let ((.def_350 (not .def_349)))
(let ((.def_356 (or .def_350 .def_355)))
(let ((.def_399 (and .def_356 .def_398)))
(let ((.def_342 (and .def_59 .def_341)))
(let ((.def_257 (* (- 1) main.x.next)))
(let ((.def_258 (+ main.x .def_257)))
(let ((.def_259 (= .def_258 (- 1))))
(let ((.def_343 (and .def_259 .def_342)))
(let ((.def_344 (and .def_41 .def_343)))
(let ((.def_345 (and .def_49 .def_344)))
(let ((.def_346 (and .def_53 .def_345)))
(let ((.def_136 (and .s.2 .def_71)))
(let ((.def_137 (and .def_17 .def_136)))
(let ((.def_339 (and .def_20 .def_137)))
(let ((.def_340 (not .def_339)))
(let ((.def_347 (or .def_340 .def_346)))
(let ((.def_400 (and .def_347 .def_399)))
(let ((.def_241 (* (- 1) main.y.next)))
(let ((.def_242 (+ main.y .def_241)))
(let ((.def_333 (= .def_242 (- 100))))
(let ((.def_128 (and .def_31 .s.2.next)))
(let ((.def_129 (and .def_60 .def_128)))
(let ((.def_228 (and .def_59 .def_129)))
(let ((.def_334 (and .def_228 .def_333)))
(let ((.def_335 (and .def_41 .def_334)))
(let ((.def_336 (and .def_45 .def_335)))
(let ((.def_337 (and .def_53 .def_336)))
(let ((.def_117 (and .def_12 .s.2)))
(let ((.def_118 (and .def_17 .def_117)))
(let ((.def_330 (and .def_20 .def_118)))
(let ((.def_331 (not .def_330)))
(let ((.def_338 (or .def_331 .def_337)))
(let ((.def_401 (and .def_338 .def_400)))
(let ((.def_106 (and .s.2.next .def_105)))
(let ((.def_107 (and .def_60 .def_106)))
(let ((.def_324 (and .def_59 .def_107)))
(let ((.def_321 (* (- 1) main.w.next)))
(let ((.def_322 (+ main.w .def_321)))
(let ((.def_323 (= .def_322 (- 1))))
(let ((.def_325 (and .def_323 .def_324)))
(let ((.def_326 (and .def_45 .def_325)))
(let ((.def_327 (and .def_49 .def_326)))
(let ((.def_328 (and .def_53 .def_327)))
(let ((.def_97 (and .s.2 .def_23)))
(let ((.def_98 (and .def_17 .def_97)))
(let ((.def_319 (and .def_20 .def_98)))
(let ((.def_320 (not .def_319)))
(let ((.def_329 (or .def_320 .def_328)))
(let ((.def_402 (and .def_329 .def_401)))
(let ((.def_90 (and .s.3.next .def_63)))
(let ((.def_313 (and .def_59 .def_90)))
(let ((.def_309 (* (- 1) main.z.next)))
(let ((.def_310 (+ main.z .def_309)))
(let ((.def_312 (= .def_310 (- 10))))
(let ((.def_314 (and .def_312 .def_313)))
(let ((.def_315 (and .def_41 .def_314)))
(let ((.def_316 (and .def_45 .def_315)))
(let ((.def_317 (and .def_49 .def_316)))
(let ((.def_86 (and .s.2 .def_85)))
(let ((.def_87 (and .def_17 .def_86)))
(let ((.def_307 (and .def_20 .def_87)))
(let ((.def_308 (not .def_307)))
(let ((.def_318 (or .def_308 .def_317)))
(let ((.def_403 (and .def_318 .def_402)))
(let ((.def_302 (and .def_41 .def_301)))
(let ((.def_303 (and .def_45 .def_302)))
(let ((.def_304 (and .def_49 .def_303)))
(let ((.def_305 (and .def_53 .def_304)))
(let ((.def_73 (and .s.3 .def_72)))
(let ((.def_299 (and .def_20 .def_73)))
(let ((.def_300 (not .def_299)))
(let ((.def_306 (or .def_300 .def_305)))
(let ((.def_404 (and .def_306 .def_403)))
(let ((.def_36 (and .def_34 .s.3.next)))
(let ((.def_293 (and .def_36 .def_59)))
(let ((.def_294 (and .def_41 .def_293)))
(let ((.def_295 (and .def_45 .def_294)))
(let ((.def_296 (and .def_49 .def_295)))
(let ((.def_297 (and .def_53 .def_296)))
(let ((.def_56 (and .def_15 .s.3)))
(let ((.def_278 (and .def_20 .def_56)))
(let ((.def_291 (and .def_278 .def_280)))
(let ((.def_292 (not .def_291)))
(let ((.def_298 (or .def_292 .def_297)))
(let ((.def_405 (and .def_298 .def_404)))
(let ((.def_284 (and .s.3.next .def_106)))
(let ((.def_285 (and .def_59 .def_284)))
(let ((.def_286 (and .def_41 .def_285)))
(let ((.def_287 (and .def_45 .def_286)))
(let ((.def_288 (and .def_49 .def_287)))
(let ((.def_289 (and .def_53 .def_288)))
(let ((.def_282 (and .def_278 .def_281)))
(let ((.def_283 (not .def_282)))
(let ((.def_290 (or .def_283 .def_289)))
(let ((.def_406 (and .def_290 .def_405)))
(let ((.def_271 (and .s.3.next .def_162)))
(let ((.def_272 (and .def_59 .def_271)))
(let ((.def_273 (and .def_41 .def_272)))
(let ((.def_274 (and .def_45 .def_273)))
(let ((.def_275 (and .def_49 .def_274)))
(let ((.def_276 (and .def_53 .def_275)))
(let ((.def_25 (and .s.3 .def_24)))
(let ((.def_265 (and .def_20 .def_25)))
(let ((.def_121 (<= 4 main.x)))
(let ((.def_269 (and .def_121 .def_265)))
(let ((.def_270 (not .def_269)))
(let ((.def_277 (or .def_270 .def_276)))
(let ((.def_407 (and .def_277 .def_406)))
(let ((.def_122 (not .def_121)))
(let ((.def_266 (and .def_122 .def_265)))
(let ((.def_267 (not .def_266)))
(let ((.def_140 (and .s.3.next .def_128)))
(let ((.def_141 (and .def_59 .def_140)))
(let ((.def_142 (and .def_41 .def_141)))
(let ((.def_143 (and .def_45 .def_142)))
(let ((.def_144 (and .def_49 .def_143)))
(let ((.def_145 (and .def_53 .def_144)))
(let ((.def_268 (or .def_145 .def_267)))
(let ((.def_408 (and .def_268 .def_407)))
(let ((.def_255 (and .s.3.next .def_151)))
(let ((.def_256 (and .def_59 .def_255)))
(let ((.def_260 (and .def_256 .def_259)))
(let ((.def_261 (and .def_41 .def_260)))
(let ((.def_262 (and .def_49 .def_261)))
(let ((.def_263 (and .def_53 .def_262)))
(let ((.def_252 (and .s.3 .def_147)))
(let ((.def_253 (and .def_20 .def_252)))
(let ((.def_254 (not .def_253)))
(let ((.def_264 (or .def_254 .def_263)))
(let ((.def_409 (and .def_264 .def_408)))
(let ((.def_245 (and .s.3.next .def_244)))
(let ((.def_246 (and .def_59 .def_245)))
(let ((.def_243 (= .def_242 (- 1))))
(let ((.def_247 (and .def_243 .def_246)))
(let ((.def_248 (and .def_41 .def_247)))
(let ((.def_249 (and .def_45 .def_248)))
(let ((.def_250 (and .def_53 .def_249)))
(let ((.def_238 (and .s.3 .def_136)))
(let ((.def_239 (and .def_20 .def_238)))
(let ((.def_240 (not .def_239)))
(let ((.def_251 (or .def_240 .def_250)))
(let ((.def_410 (and .def_251 .def_409)))
(let ((.def_234 (and .s.3 .def_117)))
(let ((.def_235 (and .def_20 .def_234)))
(let ((.def_236 (not .def_235)))
(let ((.def_237 (or .def_145 .def_236)))
(let ((.def_411 (and .def_237 .def_410)))
(let ((.def_229 (and .def_41 .def_228)))
(let ((.def_230 (and .def_45 .def_229)))
(let ((.def_231 (and .def_49 .def_230)))
(let ((.def_232 (and .def_53 .def_231)))
(let ((.def_225 (and .s.3 .def_97)))
(let ((.def_226 (and .def_20 .def_225)))
(let ((.def_227 (not .def_226)))
(let ((.def_233 (or .def_227 .def_232)))
(let ((.def_412 (and .def_233 .def_411)))
(let ((.def_207 (* (- 1) main.y)))
(let ((.def_209 (* 10 main.w)))
(let ((.def_211 (+ .def_209 .def_207)))
(let ((.def_212 (<= 0 .def_211)))
(let ((.def_205 (and .s.3 .def_86)))
(let ((.def_206 (and .def_20 .def_205)))
(let ((.def_222 (and .def_206 .def_212)))
(let ((.def_223 (not .def_222)))
(let ((.def_153 (and .s.4.next .def_152)))
(let ((.def_154 (and .def_41 .def_153)))
(let ((.def_155 (and .def_45 .def_154)))
(let ((.def_156 (and .def_49 .def_155)))
(let ((.def_157 (and .def_53 .def_156)))
(let ((.def_224 (or .def_157 .def_223)))
(let ((.def_413 (and .def_224 .def_412)))
(let ((.def_216 (and .s.4.next .def_64)))
(let ((.def_217 (and .def_41 .def_216)))
(let ((.def_218 (and .def_45 .def_217)))
(let ((.def_219 (and .def_49 .def_218)))
(let ((.def_220 (and .def_53 .def_219)))
(let ((.def_213 (not .def_212)))
(let ((.def_214 (and .def_206 .def_213)))
(let ((.def_215 (not .def_214)))
(let ((.def_221 (or .def_215 .def_220)))
(let ((.def_414 (and .def_221 .def_413)))
(let ((.def_198 (and .def_60 .def_77)))
(let ((.def_199 (and .s.4.next .def_198)))
(let ((.def_200 (and .def_41 .def_199)))
(let ((.def_201 (and .def_45 .def_200)))
(let ((.def_202 (and .def_49 .def_201)))
(let ((.def_203 (and .def_53 .def_202)))
(let ((.def_186 (* (- 1) main.z)))
(let ((.def_188 (* 100 main.x)))
(let ((.def_190 (+ .def_188 .def_186)))
(let ((.def_191 (<= .def_190 0)))
(let ((.def_183 (and .s.4 .def_182)))
(let ((.def_196 (and .def_183 .def_191)))
(let ((.def_197 (not .def_196)))
(let ((.def_204 (or .def_197 .def_203)))
(let ((.def_415 (and .def_204 .def_414)))
(let ((.def_192 (not .def_191)))
(let ((.def_193 (and .def_183 .def_192)))
(let ((.def_194 (not .def_193)))
(let ((.def_164 (and .s.4.next .def_163)))
(let ((.def_165 (and .def_41 .def_164)))
(let ((.def_166 (and .def_45 .def_165)))
(let ((.def_167 (and .def_49 .def_166)))
(let ((.def_168 (and .def_53 .def_167)))
(let ((.def_195 (or .def_168 .def_194)))
(let ((.def_416 (and .def_195 .def_415)))
(let ((.def_176 (and .s.4.next .def_175)))
(let ((.def_172 (+ main.y main.y.next)))
(let ((.def_174 (= .def_172 0)))
(let ((.def_177 (and .def_174 .def_176)))
(let ((.def_178 (and .def_41 .def_177)))
(let ((.def_179 (and .def_45 .def_178)))
(let ((.def_180 (and .def_53 .def_179)))
(let ((.def_170 (and .def_18 .s.4)))
(let ((.def_171 (not .def_170)))
(let ((.def_181 (or .def_171 .def_180)))
(let ((.def_417 (and .def_181 .def_416)))
(let ((.def_160 (and .s.4 .def_159)))
(let ((.def_161 (not .def_160)))
(let ((.def_169 (or .def_161 .def_168)))
(let ((.def_418 (and .def_169 .def_417)))
(let ((.def_149 (and .s.4 .def_148)))
(let ((.def_150 (not .def_149)))
(let ((.def_158 (or .def_150 .def_157)))
(let ((.def_419 (and .def_158 .def_418)))
(let ((.def_138 (and .s.4 .def_137)))
(let ((.def_139 (not .def_138)))
(let ((.def_146 (or .def_139 .def_145)))
(let ((.def_420 (and .def_146 .def_419)))
(let ((.def_130 (and .s.4.next .def_129)))
(let ((.def_131 (and .def_41 .def_130)))
(let ((.def_132 (and .def_45 .def_131)))
(let ((.def_133 (and .def_49 .def_132)))
(let ((.def_134 (and .def_53 .def_133)))
(let ((.def_119 (and .s.4 .def_118)))
(let ((.def_126 (and .def_119 .def_121)))
(let ((.def_127 (not .def_126)))
(let ((.def_135 (or .def_127 .def_134)))
(let ((.def_421 (and .def_135 .def_420)))
(let ((.def_123 (and .def_119 .def_122)))
(let ((.def_124 (not .def_123)))
(let ((.def_79 (and .s.4.next .def_78)))
(let ((.def_80 (and .def_41 .def_79)))
(let ((.def_81 (and .def_45 .def_80)))
(let ((.def_82 (and .def_49 .def_81)))
(let ((.def_83 (and .def_53 .def_82)))
(let ((.def_125 (or .def_83 .def_124)))
(let ((.def_422 (and .def_125 .def_421)))
(let ((.def_101 (<= main.y 2)))
(let ((.def_99 (and .s.4 .def_98)))
(let ((.def_114 (and .def_99 .def_101)))
(let ((.def_115 (not .def_114)))
(let ((.def_38 (and .def_36 .s.4.next)))
(let ((.def_42 (and .def_38 .def_41)))
(let ((.def_46 (and .def_42 .def_45)))
(let ((.def_50 (and .def_46 .def_49)))
(let ((.def_54 (and .def_50 .def_53)))
(let ((.def_116 (or .def_54 .def_115)))
(let ((.def_423 (and .def_116 .def_422)))
(let ((.def_108 (and .s.4.next .def_107)))
(let ((.def_109 (and .def_41 .def_108)))
(let ((.def_110 (and .def_45 .def_109)))
(let ((.def_111 (and .def_49 .def_110)))
(let ((.def_112 (and .def_53 .def_111)))
(let ((.def_102 (not .def_101)))
(let ((.def_103 (and .def_99 .def_102)))
(let ((.def_104 (not .def_103)))
(let ((.def_113 (or .def_104 .def_112)))
(let ((.def_424 (and .def_113 .def_423)))
(let ((.def_91 (and .s.4.next .def_90)))
(let ((.def_92 (and .def_41 .def_91)))
(let ((.def_93 (and .def_45 .def_92)))
(let ((.def_94 (and .def_49 .def_93)))
(let ((.def_95 (and .def_53 .def_94)))
(let ((.def_88 (and .s.4 .def_87)))
(let ((.def_89 (not .def_88)))
(let ((.def_96 (or .def_89 .def_95)))
(let ((.def_425 (and .def_96 .def_424)))
(let ((.def_74 (and .s.4 .def_73)))
(let ((.def_75 (not .def_74)))
(let ((.def_84 (or .def_75 .def_83)))
(let ((.def_426 (and .def_84 .def_425)))
(let ((.def_57 (and .s.4 .def_56)))
(let ((.def_58 (not .def_57)))
(let ((.def_70 (or .def_58 .def_69)))
(let ((.def_427 (and .def_70 .def_426)))
(let ((.def_26 (and .s.4 .def_25)))
(let ((.def_27 (not .def_26)))
(let ((.def_55 (or .def_27 .def_54)))
(let ((.def_428 (and .def_55 .def_427)))
.def_428))))))))))))))))))))))))))))))))))))))))))))))))))))))))))))))))))))))))))))))))))))))))))))))))))))))))))))))))))))))))))))))))))))))))))))))))))))))))))))))))))))))))))))))))))))))))))))))))))))))))))))))))))))))))))))))))))))))))))))))))))))))))))))))))))))))))))))))))))))))))))))))))))))))))))))))))))))))))))))))))))))))))))))))))))))))))))))))))))))))))))))))))))))))))))))))))))))))) (state |.s.1.next| |.s.0.next| |.s.2.next| |.s.3.next| |.s.4.next| |main.w.next| |main.x.next| |main.y.next| |main.z.next|))))
(assert (forall ((|.s.2| Bool) (|.s.3| Bool) (|.s.0| Bool) (|.s.1| Bool) (|.s.1.next| Bool) (|.s.0.next| Bool) (|.s.2.next| Bool) (|.s.3.next| Bool) (|.s.4.next| Bool) (|main.w.next| Int) (|main.w| Int) (|main.x.next| Int) (|main.x| Int) (|main.y.next| Int) (|main.y| Int) (|main.z.next| Int) (|main.z| Int) (|.inputVar.0| Int) (|.s.4| Bool)) (=> (state |.s.1| |.s.0| |.s.2| |.s.3| |.s.4| |main.w| |main.x| |main.y| |main.z|) (let ((.def_22 (not .s.0)))
(let ((.def_23 (and .s.1 .def_22)))
(let ((.def_14 (not .s.2)))
(let ((.def_24 (and .def_14 .def_23)))
(let ((.def_25 (and .s.3 .def_24)))
(let ((.def_26 (and .s.4 .def_25)))
(let ((.def_27 (not .def_26)))
.def_27))))))))))
(check-sat)
